56 58 48 18 10 42 60 6 16 70 72 79 22 11 14 69 96 24 32 26 90 64 80 82 49 25 74 66 57 5 92 87 19 21 13 51 54 35 77 40 37 47 84 38 43 99 39 88 83 9 46 89 61 34 36 41 86 3 55 78 12 73 67 91 4 65 97 2 76 59 52 1 85 75 15 93 8 30 62 27 33 45 31 28 29 17 20 0 98 53 63 50 94 23 7 44 71 68 95 81